data;

param n:=24;
param p:=3;
param r:=[1] 0 [2] 1 [3] 2 [4] 3 [5] 12 [6] 4 [7] 3 [8] 3 [9] 24 [10] 5 [11] 18 [12] 33 [13] 31 [14] 1 [15] 37 [16] 8 [17] 10 [18] 48 [19] 4 [20] 12 [21] 46 [22] 26 [23] 63 [24] 18 ;
param w:=[1] 95 [2] 8 [3] 84 [4] 79 [5] 31 [6] 35 [7] 12 [8] 31 [9] 92 [10] 28 [11] 13 [12] 48 [13] 77 [14] 29 [15] 8 [16] 6 [17] 48 [18] 77 [19] 25 [20] 13 [21] 24 [22] 24 [23] 24 [24] 51 ;

end;
